002 002 002 002 001 001 001 000 001 001 001 002 002 001 001 001 004 005 005 003 002 005 019 025 007 004 002 004 003 006 007
003 004 002 003 001 001 001 001 001 000 001 002 001 001 002 001 003 004 005 008 005 005 012 024 013 003 005 004 003 006 017
002 003 002 004 003 003 002 002 001 000 002 001 001 001 002 001 003 004 002 004 003 004 011 013 014 005 005 003 003 008 015
002 002 001 001 003 005 002 005 001 001 001 001 001 002 007 002 003 001 001 003 010 007 008 012 006 005 006 007 008 012 036
002 003 002 001 003 002 002 004 002 001 001 002 002 002 004 007 004 002 001 004 009 010 008 013 011 009 006 013 010 033 046
002 002 004 001 002 002 001 003 002 001 001 002 003 004 007 005 004 001 002 005 012 015 015 010 010 009 005 017 010 041 061
001 000 000 001 001 001 001 000 001 000 001 002 004 004 005 005 003 003 004 005 013 012 010 010 010 013 012 015 009 027 088
000 000 000 000 001 001 001 001 000 000 000 001 003 003 004 002 003 002 005 007 010 018 021 013 007 005 006 005 007 025 047
000 000 000 000 000 000 000 000 000 000 000 000 001 001 002 002 004 003 005 005 013 020 011 010 005 005 005 003 004 011 025
000 000 000 000 000 000 000 000 000 000 000 000 000 001 001 001 003 002 004 005 009 017 019 011 010 004 005 004 003 003 006
000 000 000 000 000 000 000 000 000 000 000 000 000 000 000 000 001 002 002 006 006 012 021 015 010 003 004 004 003 002 002
000 000 000 000 000 000 000 000 000 000 000 000 000 001 000 000 001 002 002 006 007 010 019 021 007 003 005 005 004 002 002
000 000 000 000 000 000 000 000 000 000 000 000 000 000 000 000 000 001 002 004 005 004 013 013 013 004 003 006 004 003 004
000 000 000 000 000 000 000 000 000 000 000 000 000 000 000 000 000 000 001 001 003 007 014 011 012 008 005 005 005 004 007
000 000 000 000 000 000 000 000 000 000 000 000 000 000 000 000 000 000 001 001 003 015 015 013 015 010 005 005 006 007 004
000 000 000 000 000 000 000 000 000 000 000 000 000 000 000 000 000 000 000 001 005 010 010 015 013 016 007 006 009 008 008
000 000 000 000 000 000 000 000 000 -99 000 000 000 000 000 000 000 000 001 001 003 004 013 014 009 013 010 009 009 006 006
000 000 000 000 -99 -99 000 000 000 000 -99 000 000 001 000 000 000 000 001 001 002 002 005 004 007 008 007 011 007 004 003
000 000 000 000 -99 -99 000 000 000 000 000 000 000 001 001 001 000 000 000 001 003 003 008 005 005 004 003 003 005 003 002
001 000 000 000 000 001 000 000 000 000 000 000 000 000 001 001 000 000 000 000 000 001 006 004 002 003 001 002 003 002 002
000 001 000 000 000 001 000 000 000 000 000 000 000 001 001 001 001 001 000 000 000 000 002 003 001 001 001 -99 -99 -99 -99
000 000 000 000 000 001 001 000 000 000 000 000 000 001 002 003 003 001 001 000 000 000 002 003 001 001 001 -99 -99 -99 -99
000 000 000 001 001 000 002 000 000 000 000 000 000 001 004 004 006 001 001 000 000 000 001 002 -99 -99 -99 -99 -99 -99 -99
000 000 000 000 001 000 000 000 001 000 000 000 000 001 003 003 005 003 001 001 000 000 000 -99 -99 -99 -99 -99 -99 003 002
000 000 000 000 000 000 000 000 000 000 000 000 000 001 004 004 002 002 001 001 001 000 000 -99 -99 -99 -99 -99 -99 003 002
000 000 000 000 000 000 000 000 000 000 000 000 000 001 002 005 002 001 001 001 001 000 000 -99 -99 -99 -99 -99 -99 001 001
000 000 000 000 000 000 000 000 000 000 000 000 000 000 002 002 002 001 001 001 000 000 000 -99 -99 -99 -99 -99 -99 002 001
000 000 000 000 000 000 000 000 000 000 000 000 000 000 001 001 001 001 001 001 000 000 001 -99 -99 -99 -99 -99 004 006 001
000 000 001 002 000 000 000 000 000 000 000 000 000 001 002 003 001 001 000 000 000 000 -99 -99 -99 -99 -99 -99 004 007 003
000 000 002 002 000 001 000 000 000 000 000 000 001 002 003 004 001 002 000 000 000 000 -99 -99 -99 -99 -99 001 003 006 004
000 000 000 000 000 000 000 000 000 000 000 000 001 006 006 006 004 004 001 000 000 000 -99 000 000 -99 -99 001 003 006 004
000 000 000 000 000 000 000 000 001 001 000 000 003 008 007 003 003 002 002 001 000 000 001 000 000 000 -99 002 002 003 003
001 000 000 000 000 000 000 000 000 000 000 000 002 004 009 003 003 003 003 001 000 000 002 001 000 000 -99 003 006 002 001
001 000 000 000 000 000 000 000 000 000 000 001 001 001 004 001 002 003 004 001 001 000 002 002 000 000 000 002 007 003 002
001 001 000 000 000 000 000 000 000 000 000 000 000 000 001 001 001 003 003 001 000 001 001 003 005 001 000 002 007 003 003
001 000 000 000 000 000 000 000 000 000 000 000 000 000 000 001 001 002 003 001 000 000 001 002 003 001 000 002 007 006 011
001 001 000 000 000 000 000 000 000 000 000 000 000 000 000 002 001 002 002 000 000 000 001 002 005 001 000 001 005 016 018
001 001 001 000 000 000 000 000 000 000 000 000 000 000 000 001 001 002 000 000 000 000 001 003 003 001 000 005 011 019 016
000 001 002 001 001 000 000 000 000 000 000 000 000 000 000 000 001 001 000 000 000 000 002 007 005 002 001 005 005 011 008
000 001 002 001 001 001 000 000 000 000 000 000 000 000 000 000 000 000 000 000 000 000 002 009 005 003 003 007 006 005 004
000 000 002 003 002 001 000 000 000 000 000 000 000 000 000 000 000 000 000 000 000 000 001 004 009 003 004 007 006 003 001
000 000 001 002 001 001 000 000 001 000 000 000 000 000 000 000 000 000 000 000 001 000 001 002 007 005 002 002 002 002 001
000 000 000 001 001 000 000 001 001 000 000 000 000 000 000 000 000 000 000 001 001 000 001 002 003 002 001 001 001 002 001
000 000 000 000 000 000 000 000 001 000 000 000 000 000 000 000 000 000 000 001 000 000 000 000 001 001 001 000 004 003 001
000 000 000 000 000 000 000 000 000 000 000 000 000 000 000 000 000 000 000 001 001 000 000 000 000 001 002 001 009 006 000
000 000 -99 000 000 000 000 000 000 000 000 000 000 000 000 000 000 000 001 002 000 000 000 000 000 000 001 003 019 000 000
000 000 -99 -99 -99 -99 000 000 000 000 000 000 000 000 000 000 000 000 004 001 000 000 000 000 000 000 000 011 005 000 000
000 000 -99 -99 -99 -99 000 000 000 000 000 000 000 000 000 000 000 000 000 000 000 000 000 000 000 000 002 003 002 000 000
000 000 -99 -99 -99 -99 000 000 000 000 000 000 001 000 000 001 000 000 000 000 000 000 000 000 000 000 000 001 002 000 000
000 000 000 -99 -99 -99 000 000 000 000 001 001 001 000 003 002 001 000 000 000 000 000 000 000 000 -99 000 000 000 000 001
000 000 000 -99 -99 -99 000 000 000 000 001 002 001 002 004 004 003 001 000 000 000 000 000 000 -99 -99 000 000 000 001 006
000 000 000 000 -99 000 000 000 000 000 000 000 001 002 003 006 004 002 000 000 000 000 -99 -99 -99 000 000 000 000 002 004
001 000 000 000 000 000 000 000 000 000 000 000 000 001 003 007 003 002 000 000 000 -99 -99 -99 -99 -99 -99 -99 000 003 003
000 000 000 000 000 000 000 000 000 000 000 000 000 001 002 003 004 002 000 000 000 -99 -99 -99 -99 -99 -99 -99 001 001 002
000 000 000 000 000 000 -99 000 000 000 000 000 000 002 002 006 005 001 000 000 000 -99 -99 -99 -99 -99 -99 -99 001 001 001
